80 8
93 36
85 54
77 70
58 12
73 46
16 28
48 20
55 77
59 99
49 65
43 26
3 51
79 32
9 96
25 47
98 42
64 78
97 7
11 2
50 68
31 83
84 8
20 63
45 91
69 84
66 40
26 19
30 28
69 86
11 38
42 62
84 92
4 97
46 94
29 48
53 73
84 62
42 53
86 44
65 97
56 63
67 12
43 47
20 46
69 53
8 64
98 80
68 90
92 61
26 1
82 82
35 15
2 88
27 41
42 41
32 7
10 14
17 44
47 81
25 47
20 78
39 44
36 63
80 41
90 15
24 48
73 9
63 82
21 72
62 55
27 90
53 4
4 12
76 69
52 24
36 72
38 10
23 87
74 52
79 46
314 591
371 673
270 710
398 652
357 551
233 476
377 660
373 622
